Gurobi Optimizer version 9.1.2 build v9.1.2rc0 (linux64)
Thread count: 36 physical cores, 72 logical processors, using up to 32 threads
Optimize a model with 12 rows, 57 columns and 590 nonzeros
Model fingerprint: 0xf32eec78
Model has 47 quadratic constraints
Coefficient statistics:
  Matrix range     [2e-05, 3e+00]
  QMatrix range    [1e+00, 1e+00]
  QLMatrix range   [1e+00, 1e+00]
  Objective range  [8e-03, 7e-01]
  Bounds range     [1e+00, 1e+00]
  RHS range        [1e+00, 1e+00]
Presolve removed 9 rows and 0 columns

Continuous model is non-convex -- solving as a MIP.

Presolve removed 9 rows and 0 columns
Presolve time: 0.00s
Presolved: 189 rows, 57 columns, 443 nonzeros
Presolved model has 47 bilinear constraint(s)
Variable types: 57 continuous, 0 integer (0 binary)

Root relaxation: objective -1.743721e+00, 44 iterations, 0.00 seconds

    Nodes    |    Current Node    |     Objective Bounds      |     Work
 Expl Unexpl |  Obj  Depth IntInf | Incumbent    BestBd   Gap | It/Node Time

     0     0   -1.74372    0   38          -   -1.74372      -     -    0s
H    0     0                       0.6147548   -1.74372   384%     -    0s
     0     0   -1.64739    0    1    0.61475   -1.64739   368%     -    0s
H    0     0                      -1.6450460   -1.64739  0.14%     -    0s
     0     0     cutoff    0        -1.64505   -1.64505  0.00%     -    0s

Cutting planes:
  RLT: 25
  BQP: 3

Explored 1 nodes (76 simplex iterations) in 0.01 seconds
Thread count was 32 (of 72 available processors)

Solution count 2: -1.64505 0.614755 
No other solutions better than -1.64505

Optimal solution found (tolerance 1.00e-04)
Best objective -1.645045978473e+00, best bound -1.645045978473e+00, gap 0.0000%

User-callback calls 78, time in user-callback 0.00 sec
Gurobi Optimizer version 9.1.2 build v9.1.2rc0 (linux64)
Thread count: 36 physical cores, 72 logical processors, using up to 32 threads
Optimize a model with 60 rows, 312 columns and 16100 nonzeros
Model fingerprint: 0x771ad013
Model has 262 quadratic constraints
Coefficient statistics:
  Matrix range     [4e-07, 7e+00]
  QMatrix range    [1e+00, 1e+00]
  QLMatrix range   [1e+00, 1e+00]
  Objective range  [1e-03, 9e-01]
  Bounds range     [1e+00, 1e+00]
  RHS range        [1e+00, 1e+00]
Presolve removed 15 rows and 0 columns

Continuous model is non-convex -- solving as a MIP.

Presolve removed 15 rows and 0 columns
Presolve time: 0.01s
Presolved: 1081 rows, 312 columns, 13447 nonzeros
Presolved model has 262 bilinear constraint(s)
Variable types: 312 continuous, 0 integer (0 binary)

Root relaxation: objective -1.457765e+01, 332 iterations, 0.02 seconds

    Nodes    |    Current Node    |     Objective Bounds      |     Work
 Expl Unexpl |  Obj  Depth IntInf | Incumbent    BestBd   Gap | It/Node Time

     0     0  -14.57765    0  197          -  -14.57765      -     -    0s
     0     0  -13.99901    0  116          -  -13.99901      -     -    0s
     0     0  -13.96782    0   64          -  -13.96782      -     -    0s
     0     0  -13.90982    0   31          -  -13.90982      -     -    0s
     0     0  -13.90751    0   79          -  -13.90751      -     -    0s
     0     0  -13.89570    0   82          -  -13.89570      -     -    0s
     0     0  -13.89569    0   82          -  -13.89569      -     -    0s
     0     0  -13.89355    0   73          -  -13.89355      -     -    0s
     0     0  -13.89285    0   36          -  -13.89285      -     -    0s
     0     0  -13.89172    0   73          -  -13.89172      -     -    0s
     0     0  -13.89143    0   73          -  -13.89143      -     -    0s
     0     0  -13.89117    0   64          -  -13.89117      -     -    0s
     0     0  -13.89117    0   64          -  -13.89117      -     -    0s
H    0     0                     -13.4747860  -13.89117  3.09%     -    0s
     0     2  -13.89117    0   64  -13.47479  -13.89117  3.09%     -    0s
* 1342   530              49     -13.4748856  -13.64975  1.30%  41.5    1s
* 1360   578              47     -13.4750762  -13.64975  1.30%  41.1    1s
* 1366   578              47     -13.4750763  -13.64975  1.30%  40.9    1s
* 1466   635              46     -13.4750765  -13.64975  1.30%  39.5    1s
* 1981   839              50     -13.4754232  -13.64975  1.29%  34.8    1s
* 2036   900              44     -13.4754395  -13.64975  1.29%  34.3    1s
* 2080   900              67     -13.4772874  -13.64975  1.28%  34.1    1s
* 2252  1005              61     -13.5025048  -13.64975  1.09%  33.2    2s
* 3445  1510              46     -13.5058916  -13.61807  0.83%  28.5    2s
* 3839  1639              41     -13.5093657  -13.61656  0.79%  27.5    2s
* 4368  1778              59     -13.5140612  -13.61656  0.76%  26.2    2s
* 5859  1810              44     -13.5141649  -13.61656  0.76%  23.9    3s
* 6202  1810              58     -13.5141984  -13.61656  0.76%  23.3    3s
* 6203  1810              58     -13.5142004  -13.61656  0.76%  23.3    3s
* 6205  1810              58     -13.5142032  -13.61656  0.76%  23.3    3s
* 6206  1810              58     -13.5142061  -13.61656  0.76%  23.3    3s
* 6207  1810              56     -13.5142373  -13.61656  0.76%  23.3    3s
* 6437  1779              47     -13.5142932  -13.61656  0.76%  23.0    3s
* 6439  1779              48     -13.5142956  -13.61656  0.76%  23.0    3s
* 6440  1779              48     -13.5142956  -13.61656  0.76%  23.0    3s
* 6442  1779              47     -13.5143117  -13.61656  0.76%  22.9    3s
* 6443  1779              47     -13.5143119  -13.61656  0.76%  22.9    3s
* 6489  1779              63     -13.5147479  -13.61656  0.75%  22.9    3s
* 6491  1779              64     -13.5147483  -13.61656  0.75%  22.9    3s
* 6493  1779              65     -13.5147483  -13.61656  0.75%  22.9    3s
* 6614  1788              50     -13.5159224  -13.61656  0.74%  22.7    3s
* 6615  1788              50     -13.5159231  -13.61656  0.74%  22.7    3s
* 8741  1731              57     -13.5159279  -13.53739  0.16%  20.9    4s
* 8742  1731              57     -13.5159297  -13.53739  0.16%  20.9    4s
* 9294  1774              55     -13.5159998  -13.53176  0.12%  20.3    4s
* 9449  1774              52     -13.5160700  -13.53162  0.12%  20.3    4s
* 9525  1774              56     -13.5162676  -13.53162  0.11%  20.2    4s
* 9527  1774              57     -13.5162863  -13.53162  0.11%  20.2    4s
* 9628  1774              42     -13.5166025  -13.53162  0.11%  20.1    4s
* 9805  1735              57     -13.5167845  -13.53123  0.11%  19.9    4s
* 9806  1735              57     -13.5167901  -13.53123  0.11%  19.9    4s
*11334  1744              51     -13.5171003  -13.52777  0.08%  18.8    4s
*11336  1744              52     -13.5171231  -13.52777  0.08%  18.8    4s
*11337  1744              52     -13.5171238  -13.52777  0.08%  18.8    4s
*11915  1790              53     -13.5172139  -13.52739  0.08%  18.5    4s
*12384  1790              51     -13.5177590  -13.52685  0.07%  18.2    4s
*12386  1790              52     -13.5177597  -13.52685  0.07%  18.2    4s
 12424  1701     cutoff   32       -13.51776  -13.52645  0.06%  18.2    5s
*13873  1838              47     -13.5177615  -13.52430  0.05%  17.5    5s
*13977  1838              50     -13.5178725  -13.52428  0.05%  17.5    5s
*13978  1838              50     -13.5178982  -13.52428  0.05%  17.5    5s
*13980  1838              50     -13.5179048  -13.52428  0.05%  17.5    5s
*13985  1838              50     -13.5179177  -13.52428  0.05%  17.5    5s
*13987  1838              51     -13.5179180  -13.52428  0.05%  17.5    5s
*14441  1738              59     -13.5181304  -13.52393  0.04%  17.3    5s
*14443  1738              60     -13.5181308  -13.52393  0.04%  17.3    5s
*14451  1738              62     -13.5181310  -13.52393  0.04%  17.3    5s
*14453  1738              60     -13.5181310  -13.52393  0.04%  17.3    5s
*17420  1675              47     -13.5181604  -13.52292  0.04%  16.4    6s
*18789  1722              60     -13.5182528  -13.52292  0.03%  15.8    6s
*20986  1515              59     -13.5182535  -13.51984  0.01%  15.1    6s
*20987  1515              59     -13.5182535  -13.51984  0.01%  15.1    6s
*20990  1515              60     -13.5182540  -13.51984  0.01%  15.1    6s
*20991  1515              60     -13.5182540  -13.51984  0.01%  15.1    6s
*21976  1499              60     -13.5182620  -13.51945  0.01%  14.7    6s
*22253  1499              61     -13.5182622  -13.51945  0.01%  14.6    6s

Cutting planes:
  RLT: 38
  BQP: 7
  PSD: 67

Explored 22677 nodes (328534 simplex iterations) in 6.69 seconds
Thread count was 32 (of 72 available processors)

Solution count 10: -13.5183 -13.5183 -13.5183 ... -13.5179

Optimal solution found (tolerance 1.00e-04)
Best objective -1.351826215781e+01, best bound -1.351945162904e+01, gap 0.0088%

User-callback calls 46157, time in user-callback 0.01 sec



objective value: -13.51826215781315
objective bound: -13.519451629039217
x_opt: [1.0, 1.0, 0.0, 0.4585158152762194, 0.0, 0.0, 1.0, 0.0, 0.0, -6.85898307457195e-7, 1.0, 0.0, 1.0, 1.0, 0.2250034036235378, 1.0, 0.0, 1.0, 0.0, 0.0, 1.0, 0.6356624526995645, 0.0, 0.7677792284389129, 0.0, 0.8422764893491346, 0.0, 1.0, 0.0, 0.0, 0.9735888273201532, 0.8591441470309121, 0.0, 0.369048046987995, 1.0, 1.0, 0.03469488699437006, 1.0, 0.0, 0.8710236092595307, 1.0, 0.0, 1.0, 0.0, 0.0, 0.09882117584547573, 0.8567655579600238, 0.048907656374539775, 1.0, 0.17162245067704535]
GUROBI solution time: 6.692169904708862




